2
46 4
11 37

3
46 4
11 37
39 9


4
46 4
11 37
39 9
1 45

5
46 4
11 37
39 9
1 45
21 49

6
36 21
46 6
35 35
17 22
41 12
0 36

7
0 22
22 31
24 24
6 24
36 8
37 41
44 0

8
7 36
4 25
9 44
19 35
32 9
5 34
48 21
3 43

9
40 21
38 40
33 34
34 31
37 13
47 37
32 26
39 7
5 36

10
21 20
3 38
49 31
46 33
28 29
32 7
21 1
17 4
13 23
4 24

11
41 22
3 19
3 22
12 29
35 11
25 46
44 14
49 7
34 13
36 37
9 4